letting n =  10
letting blocks =  [[1, 1], [1, 5], [1, 8], [1, 9], [1, 10], [2, 4], [2, 5], [2, 6], [3, 2], [3, 4], [3, 10], [4, 4], [4, 7], [4, 10], [6, 5], [7, 5], [7, 6], [8, 1], [8, 5], [9, 5], [9, 6], [9, 10], [10, 2], [10, 3]]
